language Essence 1.3

letting class be function(1 --> 1, 2 --> 1, 3 --> 1, 4 --> 1, 5 --> 1, 6 --> 1, 7 --> 1, 8 --> 1, 9 --> 1)
letting deck_length be 17
letting deck_width be 23
letting length be function(1 --> 4, 2 --> 17, 3 --> 4, 4 --> 12, 5 --> 12, 6 --> 8, 7 --> 17, 8 --> 15, 9 --> 13)
letting n_classes be 1
letting n_containers be 9
letting separation be function()
letting width be function(1 --> 9, 2 --> 5, 3 --> 7, 4 --> 2, 5 --> 4, 6 --> 1, 7 --> 6, 8 --> 1, 9 --> 2)
